; benchmark generated from python API
(set-info :status unknown)
(declare-fun S_1 () Real)
(declare-fun S_0 () Real)
(declare-fun C () Real)
(declare-fun L_0 () Real)
(declare-fun A_0 () Real)
(declare-fun L0 () Real)
(declare-fun B () Real)
(declare-fun A_4 () Real)
(declare-fun L_2 () Real)
(declare-fun L_3 () Real)
(declare-fun A_1 () Real)
(declare-fun S_2 () Real)
(declare-fun S_3 () Real)
(declare-fun A_2 () Real)
(declare-fun A_3 () Real)
(declare-fun L_1 () Real)
(declare-fun S_4 () Real)
(assert
 (let (($x37 (>= L0 0.0)))
 (let (($x745 (>= C 5.0)))
 (let (($x261 (>= B 5.0)))
 (let (($x6955 (<= (+ (* (- 5.0) C) (* (- 1.0) L_0) (* (- 1.0) S_0) A_4) 0.0)))
 (let (($x802 (not (<= L_3 L_2))))
 (let (($x722 (not (<= L_2 L_0))))
 (let (($x7543 (<= (+ (* (- 4.0) C) (* (- 1.0) L_0) (* (- 1.0) S_1) A_4) 0.0)))
 (let (($x12156 (or $x722 $x802 (<= (+ (* (- 3.0) C) (* (- 1.0) A_1) A_4) 0.0))))
 (let (($x11874 (or $x722 $x802 (<= (+ (* (- 4.0) C) (* (- 1.0) A_0) A_4) 0.0))))
 (let (($x7114 (<= (+ (* (- 3.0) C) (* (- 1.0) L_0) (* (- 1.0) S_2) A_4) 0.0)))
 (let (($x6985 (<= (+ (* (- 2.0) C) (* (- 1.0) L_0) (* (- 1.0) S_3) A_4) 0.0)))
 (let ((?x1064 (* (- 2.0) C)))
 (let ((?x267 (* (- 1.0) L_3)))
 (let ((?x512 (* (- 1.0) B)))
 (let ((?x7210 (+ ?x512 ?x267 A_3 ?x1064)))
 (let ((?x556 (* (- 1.0) L_0)))
 (let ((?x848 (+ A_1 ?x556)))
 (let (($x7369 (<= ?x848 ?x7210)))
 (let (($x7654 (or (= (+ ?x512 L_0 ?x1064 (* (- 1.0) A_1) ?x267 A_3) 0.0) (not $x7369))))
 (let ((?x791 (+ A_3 ?x267 ?x512)))
 (let (($x7086 (= ?x791 (+ A_2 ?x556 C))))
 (let (($x12428 (or $x7086 (not (<= (+ A_2 ?x556) (+ ?x512 ?x267 A_3 (* (- 1.0) C)))))))
 (let ((?x225 (* (- 1.0) C)))
 (let ((?x7059 (+ ?x512 ?x267 A_3 ?x225)))
 (let (($x7549 (<= (+ A_2 ?x556) ?x7059)))
 (let (($x1093 (not (= L_0 L_1))))
 (let (($x74 (= L_3 L_2)))
 (let (($x7790 (or $x74 $x1093 (<= (+ A_1 ?x556 L_3 (* (- 1.0) A_3) (* 2.0 C)) 0.0) $x7549)))
 (let (($x7609 (<= 0.0 (+ C (* (- 1.0) A_1) L_0 S_0))))
 (let (($x7610 (not $x7609)))
 (let (($x6676 (<= (+ A_2 (* (- 1.0) A_1) ?x225) 0.0)))
 (let (($x12376 (or $x74 $x1093 (<= S_0 (+ ?x512 ?x267 A_3 (* (- 3.0) C))) $x7549 $x7609)))
 (let (($x12031 (or $x1093 (<= (+ ?x556 A_2 (* (- 1.0) S_3)) 0.0) (<= (+ ?x556 C A_1 (* (- 1.0) S_3)) 0.0) (<= (+ (* 2.0 C) S_0 (* (- 1.0) S_3)) 0.0))))
 (let (($x11635 (or $x74 $x722 (<= (+ A_2 ?x556 L_3 (* (- 1.0) A_3) C) 0.0))))
 (let (($x1213 (not (= L_2 L_3))))
 (let (($x54 (= L_1 L_0)))
 (let (($x12249 (or $x54 $x1213 (<= (+ A_3 (* (- 1.0) L_2) (* (- 1.0) A_1) L_1 ?x1064) 0.0))))
 (let (($x11699 (or $x54 (not (<= L_3 L_1)) (<= A_4 (+ A_1 ?x512 (* 3.0 C))))))
 (let (($x64 (= L_2 L_1)))
 (let (($x7494 (or $x64 $x74 (= (+ C A_2 (* (- 1.0) L_2) L_3 (* (- 1.0) A_3)) 0.0))))
 (let (($x4117 (= L_2 L_0)))
 (let (($x7458 (or (<= (+ A_1 ?x556 L_2 (* (- 1.0) A_2) C) 0.0) $x1093 $x4117)))
 (let (($x12133 (or (not (<= ?x848 (+ ?x512 (* (- 1.0) L_2) A_2 ?x225))) (= (+ C A_1 (* (- 1.0) A_2) L_2 B ?x556) 0.0))))
 (let ((?x320 (* (- 1.0) L_2)))
 (let ((?x6017 (+ ?x512 ?x320 A_2 ?x225)))
 (let (($x7361 (<= ?x848 ?x6017)))
 (let (($x2399 (not (= L_1 L_3))))
 (let (($x7289 (not (<= A_2 (+ A_1 ?x512 C)))))
 (let (($x3280 (= L_3 L_1)))
 (let ((?x314 (* (- 1.0) L_1)))
 (let ((?x374 (+ A_1 ?x314 ?x512 C)))
 (let (($x6870 (<= (+ A_2 ?x320) ?x374)))
 (let (($x7306 (or $x54 $x74 $x6870 (= (+ A_1 ?x314 (* 2.0 C)) (+ A_3 ?x267)))))
 (let (($x7185 (or (not (= L_2 (+ A_2 (* (- 1.0) A_1) L_1 ?x225))) (<= 0.0 (+ ?x225 (* (- 1.0) A_1) A_2)))))
 (let (($x11619 (or (<= (+ ?x556 A_1 (* (- 1.0) S_2)) 0.0) (<= (+ C S_0 (* (- 1.0) S_2)) 0.0))))
 (let ((?x861 (+ A_2 ?x314)))
 (let (($x1689 (>= S_3 ?x861)))
 (let (($x36 (>= L_0 L0)))
 (let (($x111 (>= S_1 S_0)))
 (let (($x114 (>= S_2 S_1)))
 (let (($x117 (>= S_3 S_2)))
 (let (($x122 (>= A_1 A_0)))
 (let (($x123 (>= A_2 A_1)))
 (let (($x124 (>= A_3 A_2)))
 (let (($x125 (>= A_4 A_3)))
 (and (<= (+ A_4 ?x267) S_4) $x125 $x124 $x123 $x122 $x117 $x114 $x111 $x36 (or $x74 (<= S_3 ?x791)) (>= S_2 (+ A_1 ?x314 ?x512)) (or $x54 (<= S_1 (+ A_1 ?x314 ?x512))) (or $x74 (<= A_4 (+ A_3 ?x512 C))) (or $x54 (<= S_0 (+ ?x512 ?x314 A_1 ?x225))) (or $x64 (<= S_2 (+ A_2 ?x320 ?x512))) (<= S_4 (+ A_4 ?x267)) (>= S_3 (+ A_2 ?x320 ?x512)) (<= (+ ?x512 ?x314 A_1 ?x225) (+ A_0 ?x556)) (or $x64 (not $x6870)) (or $x64 (<= S_1 ?x6017)) (<= (+ L_0 (* (- 1.0) A_1) S_1) 0.0) (or $x54 (not (<= L_1 L_0))) (or $x74 $x802) (<= (+ ?x225 L_0 (* (- 1.0) A_0) S_1) 0.0) (or $x1689 (<= (+ C (* (- 1.0) S_3) S_1) 0.0)) (<= S_3 (+ A_3 ?x314)) (>= S_0 (+ ?x512 ?x314 A_1 ?x1064)) (or $x74 (<= S_2 ?x7059)) $x11619 (or $x54 $x64 (= L_2 (+ A_2 (* (- 1.0) A_1) L_1 ?x225))) (>= S_1 (+ ?x512 ?x314 A_1 ?x225)) (or $x64 (<= (+ A_3 (* (- 1.0) A_2) ?x225) 0.0) $x802) (or $x64 $x802 (<= A_4 (+ A_2 ?x512 (* 2.0 C)))) $x7185 (>= S_3 ?x7059) (or (>= S_3 ?x374) $x6870) (or $x1689 $x7289) (or $x64 (<= S_3 (+ A_2 ?x320 ?x512 C))) (<= S_3 (+ A_3 ?x320)) $x7306 (or $x54 (not (= L_1 L_2)) $x6676) (or $x3280 (= ?x791 (+ A_2 ?x314 C)) $x7289) (or $x2399 (<= (+ ?x225 ?x512 (* (- 1.0) A_2) A_3) 0.0)) (<= S_3 (+ A_2 ?x314 C)) (or $x64 (<= S_0 (+ ?x512 ?x320 A_2 ?x1064)) $x7361) (>= S_2 ?x6017) $x12133 (<= (+ ?x512 ?x320 A_2 ?x1064) (+ A_0 ?x556)) (<= S_2 ?x861) (or $x54 (<= S_2 ?x374)) (or $x722 $x4117) (>= S_1 (+ ?x512 ?x320 A_2 ?x1064)) $x7458 $x7494 (>= S_0 (+ ?x512 ?x320 A_2 (* (- 3.0) C))) (or $x54 (<= S_3 (+ A_1 ?x314 ?x512 (* 2.0 C)))) $x11699 $x12249 (<= (+ ?x512 ?x267 A_3 (* (- 3.0) C)) (+ A_0 ?x556)) $x11635 $x12031 (or (not (= L_0 L_2)) (= L_3 L_0) $x7086 (<= S_1 ?x7210)) (>= S_2 ?x7210) $x12376 (or (= L_3 L_0) $x7549 $x7610 (not $x6676)) (or $x74 $x6676 $x7369 $x7610) $x7790 $x12428 (>= S_1 (+ ?x512 ?x267 A_3 (* (- 3.0) C))) (>= S_0 (+ ?x512 ?x267 A_3 (* (- 4.0) C))) $x7654 (<= (+ (* (- 3.0) C) (* (- 1.0) S_0) S_2) 0.0) (<= A_4 (+ A_3 C)) (or $x722 $x802 $x6985) (<= (+ ?x1064 S_3 (* (- 1.0) S_2)) 0.0) (or $x722 $x802 $x7114) (<= (+ ?x1064 L_0 (* (- 1.0) A_0) S_2) 0.0) (or $x802 (<= (+ ?x1064 (* (- 1.0) A_2) A_4) 0.0)) (<= (+ (* (- 4.0) C) (* (- 1.0) S_0) S_3) 0.0) (<= (+ (* (- 3.0) C) S_3 (* (- 1.0) S_1)) 0.0) (<= (+ (* (- 3.0) C) L_0 (* (- 1.0) A_0) S_3) 0.0) (<= (+ L_0 ?x1064 (* (- 1.0) A_1) S_3) 0.0) (<= (+ ?x1064 S_2 (* (- 1.0) S_1)) 0.0) (<= (+ L_0 ?x225 (* (- 1.0) A_1) S_2) 0.0) $x11874 $x12156 (or $x722 $x802 $x7543) (or $x722 $x802 $x6955) $x261 $x745 $x37 (<= (+ (* (- 1.0) A_0) L_0 S_0) 0.0) (<= (+ ?x1064 (* (- 1.0) S_0) S_1) 0.0))))))))))))))))))))))))))))))))))))))))))))))))))))))))))))))))))))
(check-sat)
